(set-logic UF)
(declare-sort List 0)
(declare-sort Elem 0)
(declare-fun cons (Elem List) List)
(declare-fun nil () List)
(declare-fun car (List) Elem)
(declare-fun cdr (List) List)
(assert (not (not (forall ((?x Elem) (?y List)) (= ?y (cdr (cons ?x ?y)))))))
(assert (not (= (choice ((?y1 List)) (not (forall ((?x2 Elem) (?y2 List)) (or (not (= (cons (choice ((?x1 Elem)) (not (forall ((?y1 List) (?x2 Elem) (?y2 List)) (or (not (= (cons ?x1 ?y1) (cons ?x2 ?y2))) (and (= ?x1 ?x2) (= ?y1 ?y2)))))) ?y1) (cons ?x2 ?y2))) (and (= (choice ((?x1 Elem)) (not (forall ((?y1 List) (?x2 Elem) (?y2 List)) (or (not (= (cons ?x1 ?y1) (cons ?x2 ?y2))) (and (= ?x1 ?x2) (= ?y1 ?y2)))))) ?x2) (= ?y1 ?y2)))))) (cdr (cons (choice ((?x1 Elem)) (not (forall ((?y1 List) (?x2 Elem) (?y2 List)) (or (not (= (cons ?x1 ?y1) (cons ?x2 ?y2))) (and (= ?x1 ?x2) (= ?y1 ?y2)))))) (choice ((?y1 List)) (not (forall ((?x2 Elem) (?y2 List)) (or (not (= (cons (choice ((?x1 Elem)) (not (forall ((?y1 List) (?x2 Elem) (?y2 List)) (or (not (= (cons ?x1 ?y1) (cons ?x2 ?y2))) (and (= ?x1 ?x2) (= ?y1 ?y2)))))) ?y1) (cons ?x2 ?y2))) (and (= (choice ((?x1 Elem)) (not (forall ((?y1 List) (?x2 Elem) (?y2 List)) (or (not (= (cons ?x1 ?y1) (cons ?x2 ?y2))) (and (= ?x1 ?x2) (= ?y1 ?y2)))))) ?x2) (= ?y1 ?y2)))))))))))
(assert (or (not (forall ((?x Elem) (?y List)) (= ?y (cdr (cons ?x ?y))))) (= (choice ((?y1 List)) (not (forall ((?x2 Elem) (?y2 List)) (or (not (= (cons (choice ((?x1 Elem)) (not (forall ((?y1 List) (?x2 Elem) (?y2 List)) (or (not (= (cons ?x1 ?y1) (cons ?x2 ?y2))) (and (= ?x1 ?x2) (= ?y1 ?y2)))))) ?y1) (cons ?x2 ?y2))) (and (= (choice ((?x1 Elem)) (not (forall ((?y1 List) (?x2 Elem) (?y2 List)) (or (not (= (cons ?x1 ?y1) (cons ?x2 ?y2))) (and (= ?x1 ?x2) (= ?y1 ?y2)))))) ?x2) (= ?y1 ?y2)))))) (cdr (cons (choice ((?x1 Elem)) (not (forall ((?y1 List) (?x2 Elem) (?y2 List)) (or (not (= (cons ?x1 ?y1) (cons ?x2 ?y2))) (and (= ?x1 ?x2) (= ?y1 ?y2)))))) (choice ((?y1 List)) (not (forall ((?x2 Elem) (?y2 List)) (or (not (= (cons (choice ((?x1 Elem)) (not (forall ((?y1 List) (?x2 Elem) (?y2 List)) (or (not (= (cons ?x1 ?y1) (cons ?x2 ?y2))) (and (= ?x1 ?x2) (= ?y1 ?y2)))))) ?y1) (cons ?x2 ?y2))) (and (= (choice ((?x1 Elem)) (not (forall ((?y1 List) (?x2 Elem) (?y2 List)) (or (not (= (cons ?x1 ?y1) (cons ?x2 ?y2))) (and (= ?x1 ?x2) (= ?y1 ?y2)))))) ?x2) (= ?y1 ?y2)))))))))))
(check-sat)
(exit)
